10  5
  0  11  1  71  2  11  3  62  4  18
  0  87  1  82  2  47  3  55  4  68
  0  97  1  53  2  52  3  94  4  46
  0  64  1  14  2  43  3  91  4  41
  0  99  1  34  2  59  3  55  4  93
  0  9  1  23  2  12  3  43  4  95
  0  58  1  16  2  17  3  7  4  45
  0  70  1  96  2  85  3  31  4  97
  0  18  1  97  2  90  3  24  4  8
  0  29  1  49  2  78  3  99  4  35
